HFSDDW
20	6	2
0	88	1	36
0	26	1	60
0	6	1	48
0	75	1	95
0	18	1	9
0	52	1	31
0	99	1	43
0	38	1	51
0	83	1	44
0	86	1	76
0	90	1	66
0	69	1	18
0	80	1	40
0	74	1	86
0	3	1	49
0	71	1	64
0	78	1	60
0	14	1	73
0	51	1	32
0	16	1	91
LBCmax: 395
RELDUE
-1	189	7	8
-1	345	9	7
-1	280	4	8
-1	331	5	4
-1	219	3	6
-1	168	9	5
-1	316	3	9
-1	283	5	9
-1	295	9	8
-1	231	7	6
-1	268	6	1
-1	246	2	5
-1	268	8	2
-1	237	1	3
-1	342	6	9
-1	171	1	4
-1	275	5	5
-1	135	2	4
-1	308	1	9
-1	276	5	5
DDW
163	215
314	376
258	302
324	338
197	241
163	173
297	335
243	323
292	298
185	277
255	281
202	290
249	287
225	249
335	349
147	195
231	319
124	146
256	360
265	287
